\ Model remodel_embed_copy
\ LP format - for model browsing. Use MPS format to capture full model detail.
\ Signature: 0x74aef593b6f2b606
Maximize
 
Subject To
 ylog_penalty_lb_iter1: y_log >= 12.42124771118164
 ylog_penalty_ub_iter2: y_log <= 12.35893035888672
Bounds
 y_log free
End
